(declare-fun ExpandObjSwitcher () Real)
(declare-fun Constructed_Argument_t () String)
(declare-fun CreateAsClass () Bool)
(declare-fun Constructed_Argument () String)
(declare-fun |IsMatch_/BSx1BBS[BSd+m/_0| () Bool)
(assert (= ExpandObjSwitcher 3.0))
(assert (= Constructed_Argument_t "string"))
(assert CreateAsClass)
(assert (= (str.in.re Constructed_Argument (re.++ (re.* (re.range "\x00" "\xff")) (str.to.re "\x1B[") (re.range "0" "9") (re.* (re.range "0" "9")) (str.to.re "m") (re.* (re.range "\x00" "\xff")))) |IsMatch_/BSx1BBS[BSd+m/_0|))
(assert (not |IsMatch_/BSx1BBS[BSd+m/_0|))
(assert (not (<= (to_real (str.len Constructed_Argument)) 0.0)))
(check-sat)
